# Created by charmm2lammps v1.9.2 on Fri Jul  5 04:25:58 +0330 2024
# Command: charmm2lammps.pl -border=2.0 cg_solutecal3 system300_autopsf

units            real
neigh_modify     delay 2 every 1
boundary         p p p
atom_style       full
#bond_style      harmonic
#angle_style     charmm
pair_style       lj96/cut 300.0
pair_modify      tail yes mix arithmetic
#bond_style      harmonic
#angle_style     charmm
#dihedral_style  harmonic

#improper_style  harmonic
#pair_modify     mix arithmetic
#kspace_style    pppm 1e-6
dielectric       1

read_data       waterbox_autopsf.data  &
  extra/bond/per/atom 500 &
  extra/angle/per/atom 500 &
  extra/dihedral/per/atom 500 &
  extra/improper/per/atom 500 &
  extra/special/per/atom 500


#special_bonds   charmm
#thermo          10
#thermo_style    multi
timestep        100.0

minimize 0.0 0.0 3000 20000

reset_timestep  0
#fix            1 all nve
#fix             2 all shake 1e-6 500 0 m 1.0
velocity        all create 310 12345678  #dist uniform

variable T equal 310

restart          500 system2_autopsf.restart1 system2_autopsf.restart2
dump             1 all xyz 100 system2_autopsf.xyz
#dump_modify     1 image yes scale yes

#molecule mol1 2fg_unreacted.molecule_template
#molecule mol2 2fg_reacted1.molecule_template
#molecule mol3 2fg_reacted2.molecule_template
#molecule mol4 2fg_reacted3.molecule_template
#molecule mol5 2fg_reacted4.molecule_template
#
#
#fix rxn all bond/react stabilization yes statted_grp .03 &
# react rxn1 all 1 0 50 mol1 mol2 2fg_map1 stabilize_steps 100 prob 0.50 12345 &
# react rxn2 all 1 0 50 mol1 mol3 2fg_map2 stabilize_steps 100 prob 0.50 12345 &
# react rxn3 all 1 0 50 mol1 mol4 2fg_map3 stabilize_steps 100 prob 0.50 12345 &
# react rxn4 all 1 0 50 mol1 mol5 2fg_map4 stabilize_steps 100 prob 0.50 12345
#
fix 1 all nvt temp $T $T 100
#
#fix 4 bond_react_MASTER_group temp/rescale 1 $T $T 1 1

thermo_style custom step temp press density #f_rxn[1] f_rxn[2] f_rxn[3] f_rxn[4]


thermo          1000
run             10000000

write_data final_water.data nofix

#mpirun -np 20 --allow-run-as-root lmp -sf gpu -pk gpu 1 neigh no -in waterbox_autopsf.in -l waterbox.log
